(set-logic HORN)
(declare-fun state (Int Int Int Int Bool Int (Array Int Int) Int (Array Int Int) Bool Bool Int Int (Array Int Int) Int (Array Int Int) Int Int) Bool)
(assert (forall ((|.x.14| Int) (|main@%.12.i1_0_0| Int) (|main@%.1.i2_0_0| Int) (|main@%_3_0_0| Int) (|main@%assume.flag.1_0_0| Bool) (|main@%_6_0_0| Int) (|main@%shadow.mem.1_0_0| (Array Int Int)) (|main@%_7_0_0| Int) (|main@%shadow.mem1.1_0_0| (Array Int Int)) (|main@%_5_0_0| Bool) (|main@%_8_0_0| Bool) (|@nd_char_0_0| Int) (|main@%.01.i3_0_0| Int) (|main@%shadow.mem1.0_0_0| (Array Int Int)) (|main@%.0.i4_0_0| Int) (|main@%shadow.mem.0_0_0| (Array Int Int)) (|@nd_0_0| Int) (|main@%_12_0| Int) (|.x.21| Int) (|.x.22| Int) (|main@%.0.i4_2| Int) (|main@%.01.i3_2| Int) (|.x.15| Int) (|main@%_8_1| Bool) (|.x.16| Int) (|.x.17| Int) (|.x.18| Bool) (|.x.19| (Array Int Int)) (|.x.20| (Array Int Int)) (|main@%_5_1| Bool) (|main@%shadow.mem1.0_2| (Array Int Int)) (|main@%shadow.mem.0_2| (Array Int Int)) (|main@%_3_1| Int) (|main@%_6_1| Int) (|main@%_7_1| Int) (|.xtv.1| Int)) (=> (= .x.14 0) (state |.x.14| |main@%.12.i1_0_0| |main@%.1.i2_0_0| |main@%_3_0_0| |main@%assume.flag.1_0_0| |main@%_6_0_0| |main@%shadow.mem.1_0_0| |main@%_7_0_0| |main@%shadow.mem1.1_0_0| |main@%_5_0_0| |main@%_8_0_0| |@nd_char_0_0| |main@%.01.i3_0_0| |main@%shadow.mem1.0_0_0| |main@%.0.i4_0_0| |main@%shadow.mem.0_0_0| |@nd_0_0| |main@%_12_0|))))
(assert (forall ((|.x.14| Int) (|main@%.12.i1_0_0| Int) (|main@%.1.i2_0_0| Int) (|main@%_3_0_0| Int) (|main@%assume.flag.1_0_0| Bool) (|main@%_6_0_0| Int) (|main@%shadow.mem.1_0_0| (Array Int Int)) (|main@%_7_0_0| Int) (|main@%shadow.mem1.1_0_0| (Array Int Int)) (|main@%_5_0_0| Bool) (|main@%_8_0_0| Bool) (|@nd_char_0_0| Int) (|main@%.01.i3_0_0| Int) (|main@%shadow.mem1.0_0_0| (Array Int Int)) (|main@%.0.i4_0_0| Int) (|main@%shadow.mem.0_0_0| (Array Int Int)) (|@nd_0_0| Int) (|main@%_12_0| Int) (|.x.21| Int) (|.x.22| Int) (|main@%.0.i4_2| Int) (|main@%.01.i3_2| Int) (|.x.15| Int) (|main@%_8_1| Bool) (|.x.16| Int) (|.x.17| Int) (|.x.18| Bool) (|.x.19| (Array Int Int)) (|.x.20| (Array Int Int)) (|main@%_5_1| Bool) (|main@%shadow.mem1.0_2| (Array Int Int)) (|main@%shadow.mem.0_2| (Array Int Int)) (|main@%_3_1| Int) (|main@%_6_1| Int) (|main@%_7_1| Int) (|.xtv.1| Int)) (=> (and (state |.x.14| |main@%.12.i1_0_0| |main@%.1.i2_0_0| |main@%_3_0_0| |main@%assume.flag.1_0_0| |main@%_6_0_0| |main@%shadow.mem.1_0_0| |main@%_7_0_0| |main@%shadow.mem1.1_0_0| |main@%_5_0_0| |main@%_8_0_0| |@nd_char_0_0| |main@%.01.i3_0_0| |main@%shadow.mem1.0_0_0| |main@%.0.i4_0_0| |main@%shadow.mem.0_0_0| |@nd_0_0| |main@%_12_0|) (let ((.def_41 (= .x.15 1))) (let ((.def_45 (= main@%.12.i1_0_0 .x.16))) (let ((.def_48 (= main@%.1.i2_0_0 .x.17))) (let ((.def_51 (= main@%assume.flag.1_0_0 .x.18))) (let ((.def_54 (= main@%shadow.mem.1_0_0 .x.19))) (let ((.def_57 (= main@%shadow.mem1.1_0_0 .x.20))) (let ((.def_65 (= .x.17 0))) (let ((.def_67 (= .x.16 1))) (let ((.def_71 (= .x.15 2))) (let ((.def_73 (= main@%.01.i3_0_0 main@%.01.i3_2))) (let ((.def_76 (= main@%shadow.mem1.0_0_0 main@%shadow.mem1.0_2))) (let ((.def_78 (= main@%.0.i4_0_0 main@%.0.i4_2))) (let ((.def_81 (= main@%shadow.mem.0_0_0 main@%shadow.mem.0_2))) (let ((.def_106 (<= (+ main@%_3_0_0 (* (- 1) main@%.01.i3_0_0)) 3))) (let ((.def_109 (store main@%shadow.mem1.0_0_0 (+ main@%_7_0_0 main@%.01.i3_0_0) main@%_12_0))) (let ((.def_112 (store main@%shadow.mem.0_0_0 (+ main@%_6_0_0 main@%.0.i4_0_0) main@%_12_0))) (let ((.def_131 (<= main@%_6_0_0 0))) (let ((.def_132 (not .def_131))) (let ((.def_136 (or .def_131 (not (<= (+ main@%_6_0_0 main@%.0.i4_0_0) 0))))) (let ((.def_138 (<= main@%_7_0_0 0))) (let ((.def_139 (not .def_138))) (let ((.def_143 (or .def_138 (not (<= (+ main@%_7_0_0 main@%.01.i3_0_0) 0))))) (let ((.def_145 (= .x.14 1))) (let ((.def_147 (= main@%_3_0_0 main@%_3_1))) (let ((.def_149 (= main@%_6_0_0 main@%_6_1))) (let ((.def_151 (= main@%_7_0_0 main@%_7_1))) (let ((.def_153 (= main@%_5_0_0 main@%_5_1))) (let ((.def_155 (= main@%_8_0_0 main@%_8_1))) (let ((.def_160 (and main@%_5_0_0 main@%_8_0_0))) (let ((.def_185 (= (select .def_112 main@%_6_0_0) (select .def_109 (+ main@%_7_0_0 1))))) (let ((.def_189 (or .def_138 (not (<= main@%_7_0_0 (- 1)))))) (let ((.def_215 (= .x.15 3))) (let ((.def_221 (not (<= (- 3) (+ main@%.12.i1_0_0 (* (- 1) main@%_3_0_0)))))) (let ((.def_254 (= (select main@%shadow.mem1.1_0_0 (+ (+ (* 3 main@%.1.i2_0_0) main@%_7_0_0) 4)) (select main@%shadow.mem.1_0_0 main@%_12_0)))) (let ((.def_259 (or .def_138 (not (<= (+ (* 3 main@%.1.i2_0_0) main@%_7_0_0) (- 4)))))) (let ((.def_263 (or .def_131 (not (<= main@%_12_0 0))))) (let ((.def_268 (= (+ main@%.1.i2_0_0 (+ main@%_6_0_0 (* (- 1) main@%_12_0))) (- 1)))) (let ((.def_270 (= .x.14 2))) (and (and (= @nd_char_0_0 .x.21) (= @nd_0_0 .x.22)) (or (or (or (or (or (and (or (and (= main@%.0.i4_2 0) (and (= main@%.01.i3_2 1) (and (and (and (and (and (and .def_41 main@%_8_1) .def_45) .def_48) .def_51) .def_54) .def_57))) (and (and (and (and (and (and (not main@%_8_1) (and (and (= .x.18 (and main@%_8_1 main@%_5_1)) .def_65) .def_67)) .def_71) .def_73) .def_76) .def_78) .def_81)) (and (= main@%_5_1 (not (<= main@%_3_1 0))) (and (= .x.14 0) (and (= main@%_8_1 (not (<= main@%_3_1 1))) (and (not (<= main@%_6_1 0)) (not (<= main@%_7_1 0))))))) (and (and (and (and (and (and (and (and (and (and (and (not .def_106) (and (= main@%shadow.mem1.0_2 .def_109) (and (= main@%shadow.mem.0_2 .def_112) (and (= (+ main@%.01.i3_0_0 (* (- 1) main@%.01.i3_2)) (- 3)) (and (= (+ main@%.0.i4_0_0 (* (- 1) main@%.0.i4_2)) (- 1)) (and .def_57 (and .def_54 (and .def_51 (and .def_48 (and .def_41 .def_45)))))))))) .def_132) .def_136) .def_139) .def_143) .def_145) .def_147) .def_149) .def_151) .def_153) .def_155)) (and (and (and (= .x.20 .def_109) (and (= .x.19 .def_112) (and (= .x.18 .def_160) (and .def_155 (and .def_153 (and .def_151 (and .def_149 (and .def_147 (and .def_145 (and .def_143 (and .def_139 (and .def_136 (and .def_132 (and .def_106 (and .def_81 (and .def_78 (and .def_76 (and .def_73 (and .def_71 (and .def_65 .def_67)))))))))))))))))))) .def_185) .def_189)) (and (and (not .def_185) (and .def_189 (and .def_155 (and .def_153 (and .def_151 (and .def_149 (and .def_147 (and .def_145 (and .def_143 (and .def_139 (and .def_136 (and .def_132 (and .def_106 (and .def_81 (and .def_78 (and .def_76 (and .def_73 (and .def_57 (and .def_54 (and .def_51 (and .def_48 (and .def_45 .def_160)))))))))))))))))))))) .def_215)) (and (and (and (and (and (and (= .x.18 (and main@%assume.flag.1_0_0 .def_221)) (and (= (+ main@%.12.i1_0_0 (* (- 1) .x.16)) (- 3)) (and (= (+ main@%.1.i2_0_0 (* (- 1) .x.17)) (- 1)) (and .def_155 (and .def_153 (and .def_151 (and .def_149 (and .def_147 (and .def_139 (and .def_132 (and .def_81 (and .def_78 (and .def_76 (and .def_73 (and .def_71 (and .def_54 .def_57)))))))))))))))) .def_254) .def_259) .def_263) .def_268) .def_270)) (and (not .def_254) (and .def_270 (and .def_268 (and .def_263 (and .def_259 (and .def_221 (and .def_215 (and .def_155 (and .def_153 (and .def_151 (and .def_149 (and .def_147 (and .def_139 (and .def_132 (and .def_81 (and .def_78 (and .def_76 (and .def_73 (and .def_57 (and .def_54 (and .def_51 (and .def_48 (and main@%assume.flag.1_0_0 .def_45)))))))))))))))))))))))))))))))))))))))))))))))))))))))))))))))) (state |.x.15| |.x.16| |.x.17| |main@%_3_1| |.x.18| |main@%_6_1| |.x.19| |main@%_7_1| |.x.20| |main@%_5_1| |main@%_8_1| |.x.21| |main@%.01.i3_2| |main@%shadow.mem1.0_2| |main@%.0.i4_2| |main@%shadow.mem.0_2| |.x.22| |.xtv.1|))))
(assert (forall ((|.x.14| Int) (|main@%.12.i1_0_0| Int) (|main@%.1.i2_0_0| Int) (|main@%_3_0_0| Int) (|main@%assume.flag.1_0_0| Bool) (|main@%_6_0_0| Int) (|main@%shadow.mem.1_0_0| (Array Int Int)) (|main@%_7_0_0| Int) (|main@%shadow.mem1.1_0_0| (Array Int Int)) (|main@%_5_0_0| Bool) (|main@%_8_0_0| Bool) (|@nd_char_0_0| Int) (|main@%.01.i3_0_0| Int) (|main@%shadow.mem1.0_0_0| (Array Int Int)) (|main@%.0.i4_0_0| Int) (|main@%shadow.mem.0_0_0| (Array Int Int)) (|@nd_0_0| Int) (|main@%_12_0| Int) (|.x.21| Int) (|.x.22| Int) (|main@%.0.i4_2| Int) (|main@%.01.i3_2| Int) (|.x.15| Int) (|main@%_8_1| Bool) (|.x.16| Int) (|.x.17| Int) (|.x.18| Bool) (|.x.19| (Array Int Int)) (|.x.20| (Array Int Int)) (|main@%_5_1| Bool) (|main@%shadow.mem1.0_2| (Array Int Int)) (|main@%shadow.mem.0_2| (Array Int Int)) (|main@%_3_1| Int) (|main@%_6_1| Int) (|main@%_7_1| Int) (|.xtv.1| Int)) (=> (state |.x.14| |main@%.12.i1_0_0| |main@%.1.i2_0_0| |main@%_3_0_0| |main@%assume.flag.1_0_0| |main@%_6_0_0| |main@%shadow.mem.1_0_0| |main@%_7_0_0| |main@%shadow.mem1.1_0_0| |main@%_5_0_0| |main@%_8_0_0| |@nd_char_0_0| |main@%.01.i3_0_0| |main@%shadow.mem1.0_0_0| |main@%.0.i4_0_0| |main@%shadow.mem.0_0_0| |@nd_0_0| |main@%_12_0|) (not (= .x.14 3)))))
(check-sat)
